certificates/rado_a14_c90_N58.cnf
c Rad2 upper bound instance: x1 + 14*x2 - x3 = 90, interval [1,58]
p cnf 58 480
1 7 9 0
-1 -7 -9 0
1 8 23 0
-1 -8 -23 0
1 9 37 0
-1 -9 -37 0
1 10 51 0
-1 -10 -51 0
2 7 10 0
-2 -7 -10 0
2 8 24 0
-2 -8 -24 0
2 9 38 0
-2 -9 -38 0
2 10 52 0
-2 -10 -52 0
3 7 11 0
-3 -7 -11 0
3 8 25 0
-3 -8 -25 0
3 9 39 0
-3 -9 -39 0
3 10 53 0
-3 -10 -53 0
4 7 12 0
-4 -7 -12 0
4 8 26 0
-4 -8 -26 0
4 9 40 0
-4 -9 -40 0
4 10 54 0
-4 -10 -54 0
5 7 13 0
-5 -7 -13 0
5 8 27 0
-5 -8 -27 0
5 9 41 0
-5 -9 -41 0
5 10 55 0
-5 -10 -55 0
6 7 14 0
-6 -7 -14 0
6 8 28 0
-6 -8 -28 0
6 9 42 0
-6 -9 -42 0
6 10 56 0
-6 -10 -56 0
1 6 7 0
-1 -6 -7 0
7 15 0
-7 -15 0
7 8 29 0
-7 -8 -29 0
7 9 43 0
-7 -9 -43 0
7 10 57 0
-7 -10 -57 0
2 6 8 0
-2 -6 -8 0
7 8 16 0
-7 -8 -16 0
8 30 0
-8 -30 0
8 9 44 0
-8 -9 -44 0
8 10 58 0
-8 -10 -58 0
3 6 9 0
-3 -6 -9 0
7 9 17 0
-7 -9 -17 0
8 9 31 0
-8 -9 -31 0
9 45 0
-9 -45 0
4 6 10 0
-4 -6 -10 0
7 10 18 0
-7 -10 -18 0
8 10 32 0
-8 -10 -32 0
9 10 46 0
-9 -10 -46 0
5 6 11 0
-5 -6 -11 0
7 11 19 0
-7 -11 -19 0
8 11 33 0
-8 -11 -33 0
9 11 47 0
-9 -11 -47 0
6 12 0
-6 -12 0
7 12 20 0
-7 -12 -20 0
8 12 34 0
-8 -12 -34 0
9 12 48 0
-9 -12 -48 0
6 7 13 0
-6 -7 -13 0
7 13 21 0
-7 -13 -21 0
8 13 35 0
-8 -13 -35 0
9 13 49 0
-9 -13 -49 0
6 8 14 0
-6 -8 -14 0
7 14 22 0
-7 -14 -22 0
8 14 36 0
-8 -14 -36 0
9 14 50 0
-9 -14 -50 0
6 9 15 0
-6 -9 -15 0
7 15 23 0
-7 -15 -23 0
8 15 37 0
-8 -15 -37 0
9 15 51 0
-9 -15 -51 0
6 10 16 0
-6 -10 -16 0
7 16 24 0
-7 -16 -24 0
8 16 38 0
-8 -16 -38 0
9 16 52 0
-9 -16 -52 0
6 11 17 0
-6 -11 -17 0
7 17 25 0
-7 -17 -25 0
8 17 39 0
-8 -17 -39 0
9 17 53 0
-9 -17 -53 0
6 12 18 0
-6 -12 -18 0
7 18 26 0
-7 -18 -26 0
8 18 40 0
-8 -18 -40 0
9 18 54 0
-9 -18 -54 0
6 13 19 0
-6 -13 -19 0
7 19 27 0
-7 -19 -27 0
8 19 41 0
-8 -19 -41 0
9 19 55 0
-9 -19 -55 0
6 14 20 0
-6 -14 -20 0
7 20 28 0
-7 -20 -28 0
8 20 42 0
-8 -20 -42 0
9 20 56 0
-9 -20 -56 0
1 5 21 0
-1 -5 -21 0
6 15 21 0
-6 -15 -21 0
7 21 29 0
-7 -21 -29 0
8 21 43 0
-8 -21 -43 0
9 21 57 0
-9 -21 -57 0
2 5 22 0
-2 -5 -22 0
6 16 22 0
-6 -16 -22 0
7 22 30 0
-7 -22 -30 0
8 22 44 0
-8 -22 -44 0
9 22 58 0
-9 -22 -58 0
3 5 23 0
-3 -5 -23 0
6 17 23 0
-6 -17 -23 0
7 23 31 0
-7 -23 -31 0
8 23 45 0
-8 -23 -45 0
4 5 24 0
-4 -5 -24 0
6 18 24 0
-6 -18 -24 0
7 24 32 0
-7 -24 -32 0
8 24 46 0
-8 -24 -46 0
5 25 0
-5 -25 0
6 19 25 0
-6 -19 -25 0
7 25 33 0
-7 -25 -33 0
8 25 47 0
-8 -25 -47 0
5 6 26 0
-5 -6 -26 0
6 20 26 0
-6 -20 -26 0
7 26 34 0
-7 -26 -34 0
8 26 48 0
-8 -26 -48 0
5 7 27 0
-5 -7 -27 0
6 21 27 0
-6 -21 -27 0
7 27 35 0
-7 -27 -35 0
8 27 49 0
-8 -27 -49 0
5 8 28 0
-5 -8 -28 0
6 22 28 0
-6 -22 -28 0
7 28 36 0
-7 -28 -36 0
8 28 50 0
-8 -28 -50 0
5 9 29 0
-5 -9 -29 0
6 23 29 0
-6 -23 -29 0
7 29 37 0
-7 -29 -37 0
8 29 51 0
-8 -29 -51 0
5 10 30 0
-5 -10 -30 0
6 24 30 0
-6 -24 -30 0
7 30 38 0
-7 -30 -38 0
8 30 52 0
-8 -30 -52 0
5 11 31 0
-5 -11 -31 0
6 25 31 0
-6 -25 -31 0
7 31 39 0
-7 -31 -39 0
8 31 53 0
-8 -31 -53 0
5 12 32 0
-5 -12 -32 0
6 26 32 0
-6 -26 -32 0
7 32 40 0
-7 -32 -40 0
8 32 54 0
-8 -32 -54 0
5 13 33 0
-5 -13 -33 0
6 27 33 0
-6 -27 -33 0
7 33 41 0
-7 -33 -41 0
8 33 55 0
-8 -33 -55 0
5 14 34 0
-5 -14 -34 0
6 28 34 0
-6 -28 -34 0
7 34 42 0
-7 -34 -42 0
8 34 56 0
-8 -34 -56 0
1 4 35 0
-1 -4 -35 0
5 15 35 0
-5 -15 -35 0
6 29 35 0
-6 -29 -35 0
7 35 43 0
-7 -35 -43 0
8 35 57 0
-8 -35 -57 0
2 4 36 0
-2 -4 -36 0
5 16 36 0
-5 -16 -36 0
6 30 36 0
-6 -30 -36 0
7 36 44 0
-7 -36 -44 0
8 36 58 0
-8 -36 -58 0
3 4 37 0
-3 -4 -37 0
5 17 37 0
-5 -17 -37 0
6 31 37 0
-6 -31 -37 0
7 37 45 0
-7 -37 -45 0
4 38 0
-4 -38 0
5 18 38 0
-5 -18 -38 0
6 32 38 0
-6 -32 -38 0
7 38 46 0
-7 -38 -46 0
4 5 39 0
-4 -5 -39 0
5 19 39 0
-5 -19 -39 0
6 33 39 0
-6 -33 -39 0
7 39 47 0
-7 -39 -47 0
4 6 40 0
-4 -6 -40 0
5 20 40 0
-5 -20 -40 0
6 34 40 0
-6 -34 -40 0
7 40 48 0
-7 -40 -48 0
4 7 41 0
-4 -7 -41 0
5 21 41 0
-5 -21 -41 0
6 35 41 0
-6 -35 -41 0
7 41 49 0
-7 -41 -49 0
4 8 42 0
-4 -8 -42 0
5 22 42 0
-5 -22 -42 0
6 36 42 0
-6 -36 -42 0
7 42 50 0
-7 -42 -50 0
4 9 43 0
-4 -9 -43 0
5 23 43 0
-5 -23 -43 0
6 37 43 0
-6 -37 -43 0
7 43 51 0
-7 -43 -51 0
4 10 44 0
-4 -10 -44 0
5 24 44 0
-5 -24 -44 0
6 38 44 0
-6 -38 -44 0
7 44 52 0
-7 -44 -52 0
4 11 45 0
-4 -11 -45 0
5 25 45 0
-5 -25 -45 0
6 39 45 0
-6 -39 -45 0
7 45 53 0
-7 -45 -53 0
4 12 46 0
-4 -12 -46 0
5 26 46 0
-5 -26 -46 0
6 40 46 0
-6 -40 -46 0
7 46 54 0
-7 -46 -54 0
4 13 47 0
-4 -13 -47 0
5 27 47 0
-5 -27 -47 0
6 41 47 0
-6 -41 -47 0
7 47 55 0
-7 -47 -55 0
4 14 48 0
-4 -14 -48 0
5 28 48 0
-5 -28 -48 0
6 42 48 0
-6 -42 -48 0
7 48 56 0
-7 -48 -56 0
1 3 49 0
-1 -3 -49 0
4 15 49 0
-4 -15 -49 0
5 29 49 0
-5 -29 -49 0
6 43 49 0
-6 -43 -49 0
7 49 57 0
-7 -49 -57 0
2 3 50 0
-2 -3 -50 0
4 16 50 0
-4 -16 -50 0
5 30 50 0
-5 -30 -50 0
6 44 50 0
-6 -44 -50 0
7 50 58 0
-7 -50 -58 0
3 51 0
-3 -51 0
4 17 51 0
-4 -17 -51 0
5 31 51 0
-5 -31 -51 0
6 45 51 0
-6 -45 -51 0
3 4 52 0
-3 -4 -52 0
4 18 52 0
-4 -18 -52 0
5 32 52 0
-5 -32 -52 0
6 46 52 0
-6 -46 -52 0
3 5 53 0
-3 -5 -53 0
4 19 53 0
-4 -19 -53 0
5 33 53 0
-5 -33 -53 0
6 47 53 0
-6 -47 -53 0
3 6 54 0
-3 -6 -54 0
4 20 54 0
-4 -20 -54 0
5 34 54 0
-5 -34 -54 0
6 48 54 0
-6 -48 -54 0
3 7 55 0
-3 -7 -55 0
4 21 55 0
-4 -21 -55 0
5 35 55 0
-5 -35 -55 0
6 49 55 0
-6 -49 -55 0
3 8 56 0
-3 -8 -56 0
4 22 56 0
-4 -22 -56 0
5 36 56 0
-5 -36 -56 0
6 50 56 0
-6 -50 -56 0
3 9 57 0
-3 -9 -57 0
4 23 57 0
-4 -23 -57 0
5 37 57 0
-5 -37 -57 0
6 51 57 0
-6 -51 -57 0
3 10 58 0
-3 -10 -58 0
4 24 58 0
-4 -24 -58 0
5 38 58 0
-5 -38 -58 0
6 52 58 0
-6 -52 -58 0
