certificates/rado_a14_c90_N58.drat
-51 6 -57 0
-52 -57 -58 0
-3 -54 -57 -58 0
-51 -57 0
d -6 -51 -57 0
d -51 6 -57 0
-57 -58 0
d -3 -54 -57 -58 0
d -52 -57 -58 0
51 -58 0
-58 0
-6 46 -10 0
-51 57 0
57 0
-51 0
3 0
-9 0
45 0
15 0
22 0
-7 0
1 0
43 0
50 0
17 0
-49 0
-2 0
13 0
41 0
38 0
10 0
-4 0
-53 0
36 0
24 0
19 0
12 0
40 0
-8 0
-6 0
26 0
16 0
30 0
44 0
31 0
29 0
42 0
0
